1	 2 
1	 3 
1	 19 
1	 37 
2	 3 
2	 20 
3	 4 
3	 21 
4	 5 
4	 22 
5	 6 
5	 23 
6	 7 
6	 24 
7	 8 
7	 25 
8	 9 
8	 26 
9	 10 
9	 27 
10	 11 
10	 28 
11	 12 
11	 29 
12	 13 
12	 30 
13	 14 
13	 31 
14	 15 
14	 32 
15	 16 
15	 33 
16	 17 
16	 34 
17	 18 
17	 35 
18	 19 
18	 36 
19	 20 
19	 37 
20	 21 
21	 22 
22	 23 
23	 24 
24	 25 
25	 26 
26	 27 
27	 28 
28	 29 
29	 30 
30	 31 
31	 32 
32	 33 
33	 34 
34	 35 
35	 36 
36	 37 
